c strEdges: 189  randomEdges: 441 
c degrees:  2  3 
c girth: 10 max: 8.032766  
c Hgirth mixed MAXCUT instance
c generated from an undirected graph
c to solve unweighted MaxCut
p cnf 140 1260
86 11 0
-86 -11 0
86 104 0
-86 -104 0
86 139 0
-86 -139 0
79 6 0
-79 -6 0
79 38 0
-79 -38 0
79 137 0
-79 -137 0
54 8 0
-54 -8 0
54 108 0
-54 -108 0
54 131 0
-54 -131 0
10 115 0
-10 -115 0
10 27 0
-10 -27 0
10 7 0
-10 -7 0
111 104 0
-111 -104 0
111 94 0
-111 -94 0
111 133 0
-111 -133 0
48 27 0
-48 -27 0
48 102 0
-48 -102 0
48 90 0
-48 -90 0
66 131 0
-66 -131 0
66 80 0
-66 -80 0
66 51 0
-66 -51 0
88 97 0
-88 -97 0
88 118 0
-88 -118 0
88 65 0
-88 -65 0
113 13 0
-113 -13 0
113 29 0
-113 -29 0
113 56 0
-113 -56 0
44 135 0
-44 -135 0
44 74 0
-44 -74 0
44 115 0
-44 -115 0
110 78 0
-110 -78 0
110 2 0
-110 -2 0
114 4 0
-114 -4 0
114 123 0
-114 -123 0
114 38 0
-114 -38 0
96 129 0
-96 -129 0
96 27 0
-96 -27 0
138 103 0
-138 -103 0
138 102 0
-138 -102 0
138 36 0
-138 -36 0
34 137 0
-34 -137 0
34 13 0
-34 -13 0
39 30 0
-39 -30 0
39 103 0
-39 -103 0
52 37 0
-52 -37 0
52 105 0
-52 -105 0
92 127 0
-92 -127 0
92 30 0
-92 -30 0
95 46 0
-95 -46 0
95 51 0
-95 -51 0
95 129 0
-95 -129 0
26 31 0
-26 -31 0
26 112 0
-26 -112 0
33 62 0
-33 -62 0
33 4 0
-33 -4 0
41 118 0
-41 -118 0
41 61 0
-41 -61 0
41 17 0
-41 -17 0
89 128 0
-89 -128 0
89 77 0
-89 -77 0
89 133 0
-89 -133 0
9 84 0
-9 -84 0
9 105 0
-9 -105 0
9 101 0
-9 -101 0
72 5 0
-72 -5 0
72 62 0
-72 -62 0
72 24 0
-72 -24 0
40 83 0
-40 -83 0
40 129 0
-40 -129 0
40 31 0
-40 -31 0
50 120 0
-50 -120 0
50 122 0
-50 -122 0
50 78 0
-50 -78 0
43 85 0
-43 -85 0
43 6 0
-43 -6 0
116 101 0
-116 -101 0
116 90 0
-116 -90 0
116 17 0
-116 -17 0
98 20 0
-98 -20 0
98 36 0
-98 -36 0
98 100 0
-98 -100 0
81 93 0
-81 -93 0
81 71 0
-81 -71 0
81 31 0
-81 -31 0
119 90 0
-119 -90 0
119 67 0
-119 -67 0
119 136 0
-119 -136 0
130 58 0
-130 -58 0
130 6 0
-130 -6 0
130 104 0
-130 -104 0
107 61 0
-107 -61 0
107 85 0
-107 -85 0
107 120 0
-107 -120 0
68 80 0
-68 -80 0
68 5 0
-68 -5 0
68 78 0
-68 -78 0
28 63 0
-28 -63 0
28 20 0
-28 -20 0
28 24 0
-28 -24 0
49 7 0
-49 -7 0
49 120 0
-49 -120 0
73 100 0
-73 -100 0
73 11 0
-73 -11 0
73 115 0
-73 -115 0
69 105 0
-69 -105 0
69 131 0
-69 -131 0
25 74 0
-25 -74 0
25 62 0
-25 -62 0
25 108 0
-25 -108 0
109 121 0
-109 -121 0
109 103 0
-109 -103 0
109 85 0
-109 -85 0
32 2 0
-32 -2 0
32 124 0
-32 -124 0
32 127 0
-32 -127 0
99 15 0
-99 -15 0
99 135 0
-99 -135 0
99 118 0
-99 -118 0
23 60 0
-23 -60 0
23 4 0
-23 -4 0
23 65 0
-23 -65 0
45 133 0
-45 -133 0
45 106 0
-45 -106 0
45 2 0
-45 -2 0
22 94 0
-22 -94 0
22 46 0
-22 -46 0
3 64 0
-3 -64 0
3 75 0
-3 -75 0
3 46 0
-3 -46 0
16 132 0
-16 -132 0
16 84 0
-16 -84 0
16 121 0
-16 -121 0
91 124 0
-91 -124 0
91 136 0
-91 -136 0
91 35 0
-91 -35 0
12 139 0
-12 -139 0
12 37 0
-12 -37 0
12 122 0
-12 -122 0
19 123 0
-19 -123 0
19 101 0
-19 -101 0
59 108 0
-59 -108 0
59 97 0
-59 -97 0
59 94 0
-59 -94 0
55 75 0
-55 -75 0
55 93 0
-55 -93 0
55 15 0
-55 -15 0
70 56 0
-70 -56 0
70 74 0
-70 -74 0
18 36 0
-18 -36 0
18 123 0
-18 -123 0
18 106 0
-18 -106 0
126 17 0
-126 -17 0
126 83 0
-126 -83 0
126 63 0
-126 -63 0
134 51 0
-134 -51 0
134 29 0
-134 -29 0
125 67 0
-125 -67 0
125 58 0
-125 -58 0
125 80 0
-125 -80 0
1 71 0
-1 -71 0
1 60 0
-1 -60 0
1 37 0
-1 -37 0
53 24 0
-53 -24 0
53 75 0
-53 -75 0
117 122 0
-117 -122 0
117 64 0
-117 -64 0
117 128 0
-117 -128 0
57 65 0
-57 -65 0
57 30 0
-57 -30 0
76 106 0
-76 -106 0
76 83 0
-76 -83 0
42 102 0
-42 -102 0
42 112 0
-42 -112 0
47 29 0
-47 -29 0
47 35 0
-47 -35 0
47 71 0
-47 -71 0
21 77 0
-21 -77 0
21 56 0
-21 -56 0
14 112 0
-14 -112 0
14 128 0
-14 -128 0
14 8 0
-14 -8 0
87 136 0
-87 -136 0
87 97 0
-87 -97 0
140 38 0
-140 -38 0
140 64 0
-140 -64 0
140 127 0
-140 -127 0
82 35 0
-82 -35 0
82 63 0
-82 -63 0
82 132 0
-82 -132 0
58 75 0
-58 -75 0
100 56 0
-100 -56 0
140 122 0
-140 -122 0
5 51 0
-5 -51 0
81 108 0
-81 -108 0
138 95 0
-138 -95 0
57 4 0
-57 -4 0
39 89 0
-39 -89 0
75 51 0
-75 -51 0
110 51 0
-110 -51 0
127 67 0
-127 -67 0
115 133 0
-115 -133 0
52 140 0
-52 -140 0
32 7 0
-32 -7 0
66 108 0
-66 -108 0
62 133 0
-62 -133 0
68 8 0
-68 -8 0
45 102 0
-45 -102 0
86 29 0
-86 -29 0
20 94 0
-20 -94 0
45 4 0
-45 -4 0
10 131 0
-10 -131 0
119 140 0
-119 -140 0
128 105 0
-128 -105 0
100 35 0
-100 -35 0
18 21 0
-18 -21 0
44 106 0
-44 -106 0
115 83 0
-115 -83 0
135 75 0
-135 -75 0
7 100 0
-7 -100 0
107 51 0
-107 -51 0
54 94 0
-54 -94 0
21 84 0
-21 -84 0
28 70 0
-28 -70 0
13 67 0
-13 -67 0
107 42 0
-107 -42 0
44 20 0
-44 -20 0
16 55 0
-16 -55 0
55 121 0
-55 -121 0
118 93 0
-118 -93 0
49 63 0
-49 -63 0
114 102 0
-114 -102 0
62 2 0
-62 -2 0
113 15 0
-113 -15 0
84 94 0
-84 -94 0
84 2 0
-84 -2 0
19 4 0
-19 -4 0
37 127 0
-37 -127 0
54 72 0
-54 -72 0
107 56 0
-107 -56 0
43 56 0
-43 -56 0
34 25 0
-34 -25 0
43 129 0
-43 -129 0
3 85 0
-3 -85 0
54 17 0
-54 -17 0
19 24 0
-19 -24 0
105 56 0
-105 -56 0
54 122 0
-54 -122 0
45 77 0
-45 -77 0
4 15 0
-4 -15 0
98 68 0
-98 -68 0
81 104 0
-81 -104 0
4 61 0
-4 -61 0
54 85 0
-54 -85 0
41 50 0
-41 -50 0
88 99 0
-88 -99 0
79 98 0
-79 -98 0
100 133 0
-100 -133 0
132 56 0
-132 -56 0
79 44 0
-79 -44 0
140 51 0
-140 -51 0
78 101 0
-78 -101 0
73 37 0
-73 -37 0
52 134 0
-52 -134 0
140 132 0
-140 -132 0
72 108 0
-72 -108 0
10 119 0
-10 -119 0
43 122 0
-43 -122 0
84 122 0
-84 -122 0
44 109 0
-44 -109 0
23 5 0
-23 -5 0
134 67 0
-134 -67 0
86 136 0
-86 -136 0
11 37 0
-11 -37 0
3 131 0
-3 -131 0
68 23 0
-68 -23 0
46 121 0
-46 -121 0
19 6 0
-19 -6 0
81 7 0
-81 -7 0
115 101 0
-115 -101 0
130 139 0
-130 -139 0
88 2 0
-88 -2 0
39 126 0
-39 -126 0
104 105 0
-104 -105 0
34 72 0
-34 -72 0
81 13 0
-81 -13 0
19 55 0
-19 -55 0
52 89 0
-52 -89 0
115 35 0
-115 -35 0
105 123 0
-105 -123 0
86 106 0
-86 -106 0
48 6 0
-48 -6 0
107 12 0
-107 -12 0
80 29 0
-80 -29 0
92 124 0
-92 -124 0
13 58 0
-13 -58 0
130 90 0
-130 -90 0
90 102 0
-90 -102 0
73 134 0
-73 -134 0
75 38 0
-75 -38 0
6 5 0
-6 -5 0
1 133 0
-1 -133 0
119 64 0
-119 -64 0
95 36 0
-95 -36 0
54 74 0
-54 -74 0
123 51 0
-123 -51 0
13 36 0
-13 -36 0
70 38 0
-70 -38 0
86 7 0
-86 -7 0
64 102 0
-64 -102 0
39 21 0
-39 -21 0
117 127 0
-117 -127 0
8 5 0
-8 -5 0
19 38 0
-19 -38 0
117 132 0
-117 -132 0
3 18 0
-3 -18 0
114 96 0
-114 -96 0
102 112 0
-102 -112 0
63 102 0
-63 -102 0
114 43 0
-114 -43 0
83 60 0
-83 -60 0
30 133 0
-30 -133 0
135 128 0
-135 -128 0
55 20 0
-55 -20 0
9 81 0
-9 -81 0
115 94 0
-115 -94 0
41 108 0
-41 -108 0
70 7 0
-70 -7 0
45 134 0
-45 -134 0
128 61 0
-128 -61 0
138 90 0
-138 -90 0
92 68 0
-92 -68 0
45 14 0
-45 -14 0
41 121 0
-41 -121 0
116 108 0
-116 -108 0
110 52 0
-110 -52 0
131 112 0
-131 -112 0
22 104 0
-22 -104 0
12 35 0
-12 -35 0
116 129 0
-116 -129 0
115 80 0
-115 -80 0
78 15 0
-78 -15 0
16 117 0
-16 -117 0
131 78 0
-131 -78 0
51 71 0
-51 -71 0
83 51 0
-83 -51 0
79 71 0
-79 -71 0
31 94 0
-31 -94 0
88 69 0
-88 -69 0
19 29 0
-19 -29 0
20 63 0
-20 -63 0
43 8 0
-43 -8 0
40 78 0
-40 -78 0
95 135 0
-95 -135 0
92 55 0
-92 -55 0
120 56 0
-120 -56 0
25 27 0
-25 -27 0
47 31 0
-47 -31 0
25 75 0
-25 -75 0
114 65 0
-114 -65 0
25 57 0
-25 -57 0
12 140 0
-12 -140 0
26 1 0
-26 -1 0
104 97 0
-104 -97 0
113 22 0
-113 -22 0
127 24 0
-127 -24 0
49 37 0
-49 -37 0
41 25 0
-41 -25 0
90 100 0
-90 -100 0
83 7 0
-83 -7 0
53 103 0
-53 -103 0
55 8 0
-55 -8 0
66 110 0
-66 -110 0
59 47 0
-59 -47 0
137 85 0
-137 -85 0
95 76 0
-95 -76 0
95 35 0
-95 -35 0
20 29 0
-20 -29 0
89 11 0
-89 -11 0
12 42 0
-12 -42 0
43 99 0
-43 -99 0
96 19 0
-96 -19 0
59 13 0
-59 -13 0
82 51 0
-82 -51 0
69 78 0
-69 -78 0
21 97 0
-21 -97 0
137 139 0
-137 -139 0
88 117 0
-88 -117 0
50 130 0
-50 -130 0
116 2 0
-116 -2 0
115 120 0
-115 -120 0
76 80 0
-76 -80 0
9 35 0
-9 -35 0
6 36 0
-6 -36 0
9 46 0
-9 -46 0
52 70 0
-52 -70 0
50 74 0
-50 -74 0
48 57 0
-48 -57 0
18 4 0
-18 -4 0
89 2 0
-89 -2 0
104 15 0
-104 -15 0
43 117 0
-43 -117 0
8 85 0
-8 -85 0
120 60 0
-120 -60 0
101 24 0
-101 -24 0
129 77 0
-129 -77 0
41 105 0
-41 -105 0
28 8 0
-28 -8 0
92 69 0
-92 -69 0
76 35 0
-76 -35 0
110 118 0
-110 -118 0
104 51 0
-104 -51 0
59 132 0
-59 -132 0
82 2 0
-82 -2 0
33 90 0
-33 -90 0
91 80 0
-91 -80 0
19 90 0
-19 -90 0
50 140 0
-50 -140 0
116 78 0
-116 -78 0
81 29 0
-81 -29 0
66 97 0
-66 -97 0
79 63 0
-79 -63 0
86 49 0
-86 -49 0
111 30 0
-111 -30 0
95 38 0
-95 -38 0
18 31 0
-18 -31 0
28 27 0
-28 -27 0
61 77 0
-61 -77 0
107 136 0
-107 -136 0
50 118 0
-50 -118 0
140 90 0
-140 -90 0
9 29 0
-9 -29 0
46 105 0
-46 -105 0
107 90 0
-107 -90 0
69 100 0
-69 -100 0
72 83 0
-72 -83 0
62 128 0
-62 -128 0
104 78 0
-104 -78 0
79 55 0
-79 -55 0
126 102 0
-126 -102 0
70 67 0
-70 -67 0
103 62 0
-103 -62 0
109 134 0
-109 -134 0
19 139 0
-19 -139 0
55 78 0
-55 -78 0
78 84 0
-78 -84 0
116 94 0
-116 -94 0
137 56 0
-137 -56 0
19 36 0
-19 -36 0
98 59 0
-98 -59 0
52 51 0
-52 -51 0
110 35 0
-110 -35 0
30 20 0
-30 -20 0
140 83 0
-140 -83 0
79 51 0
-79 -51 0
5 29 0
-5 -29 0
86 108 0
-86 -108 0
68 65 0
-68 -65 0
121 38 0
-121 -38 0
6 129 0
-6 -129 0
18 38 0
-18 -38 0
48 8 0
-48 -8 0
49 123 0
-49 -123 0
55 77 0
-55 -77 0
88 116 0
-88 -116 0
99 121 0
-99 -121 0
42 103 0
-42 -103 0
51 29 0
-51 -29 0
6 137 0
-6 -137 0
58 100 0
-58 -100 0
116 67 0
-116 -67 0
129 93 0
-129 -93 0
20 61 0
-20 -61 0
117 97 0
-117 -97 0
27 38 0
-27 -38 0
32 140 0
-32 -140 0
9 119 0
-9 -119 0
53 84 0
-53 -84 0
95 77 0
-95 -77 0
79 84 0
-79 -84 0
52 131 0
-52 -131 0
62 75 0
-62 -75 0
2 124 0
-2 -124 0
137 46 0
-137 -46 0
69 7 0
-69 -7 0
113 38 0
-113 -38 0
98 107 0
-98 -107 0
72 67 0
-72 -67 0
9 87 0
-9 -87 0
55 58 0
-55 -58 0
11 118 0
-11 -118 0
138 84 0
-138 -84 0
79 93 0
-79 -93 0
92 40 0
-92 -40 0
135 80 0
-135 -80 0
9 16 0
-9 -16 0
57 84 0
-57 -84 0
133 67 0
-133 -67 0
31 80 0
-31 -80 0
117 58 0
-117 -58 0
33 3 0
-33 -3 0
32 60 0
-32 -60 0
59 31 0
-59 -31 0
135 94 0
-135 -94 0
108 38 0
-108 -38 0
82 94 0
-82 -94 0
137 58 0
-137 -58 0
116 133 0
-116 -133 0
126 7 0
-126 -7 0
68 77 0
-68 -77 0
91 101 0
-91 -101 0
138 127 0
-138 -127 0
26 80 0
-26 -80 0
79 111 0
-79 -111 0
49 118 0
-49 -118 0
12 4 0
-12 -4 0
69 56 0
-69 -56 0
95 93 0
-95 -93 0
50 106 0
-50 -106 0
41 107 0
-41 -107 0
138 47 0
-138 -47 0
95 15 0
-95 -15 0
89 4 0
-89 -4 0
98 3 0
-98 -3 0
33 128 0
-33 -128 0
113 58 0
-113 -58 0
87 100 0
-87 -100 0
47 37 0
-47 -37 0
117 120 0
-117 -120 0
79 29 0
-79 -29 0
55 124 0
-55 -124 0
109 127 0
-109 -127 0
125 108 0
-125 -108 0
39 19 0
-39 -19 0
99 136 0
-99 -136 0
40 60 0
-40 -60 0
58 61 0
-58 -61 0
10 111 0
-10 -111 0
14 105 0
-14 -105 0
96 109 0
-96 -109 0
103 64 0
-103 -64 0
40 17 0
-40 -17 0
43 2 0
-43 -2 0
49 129 0
-49 -129 0
89 73 0
-89 -73 0
111 76 0
-111 -76 0
33 47 0
-33 -47 0
67 122 0
-67 -122 0
98 58 0
-98 -58 0
119 38 0
-119 -38 0
21 120 0
-21 -120 0
80 132 0
-80 -132 0
115 122 0
-115 -122 0
95 103 0
-95 -103 0
55 126 0
-55 -126 0
66 132 0
-66 -132 0
92 131 0
-92 -131 0
130 61 0
-130 -61 0
12 128 0
-12 -128 0
117 30 0
-117 -30 0
57 51 0
-57 -51 0
47 127 0
-47 -127 0
88 63 0
-88 -63 0
59 18 0
-59 -18 0
95 73 0
-95 -73 0
72 35 0
-72 -35 0
111 130 0
-111 -130 0
118 56 0
-118 -56 0
103 63 0
-103 -63 0
101 100 0
-101 -100 0
82 100 0
-82 -100 0
16 38 0
-16 -38 0
68 3 0
-68 -3 0
127 51 0
-127 -51 0
114 41 0
-114 -41 0
114 82 0
-114 -82 0
54 19 0
-54 -19 0
86 8 0
-86 -8 0
97 90 0
-97 -90 0
116 128 0
-116 -128 0
40 46 0
-40 -46 0
56 35 0
-56 -35 0
113 72 0
-113 -72 0
23 85 0
-23 -85 0
116 104 0
-116 -104 0
23 27 0
-23 -27 0
89 51 0
-89 -51 0
45 20 0
-45 -20 0
21 78 0
-21 -78 0
39 13 0
-39 -13 0
34 16 0
-34 -16 0
39 131 0
-39 -131 0
33 18 0
-33 -18 0
22 4 0
-22 -4 0
109 8 0
-109 -8 0
53 93 0
-53 -93 0
92 11 0
-92 -11 0
92 116 0
-92 -116 0
69 136 0
-69 -136 0
42 51 0
-42 -51 0
70 77 0
-70 -77 0
85 61 0
-85 -61 0
87 93 0
-87 -93 0
22 85 0
-22 -85 0
27 29 0
-27 -29 0
21 112 0
-21 -112 0
98 15 0
-98 -15 0
97 121 0
-97 -121 0
66 4 0
-66 -4 0
91 58 0
-91 -58 0
120 93 0
-120 -93 0
97 75 0
-97 -75 0
34 118 0
-34 -118 0
48 124 0
-48 -124 0
28 82 0
-28 -82 0
19 30 0
-19 -30 0
52 135 0
-52 -135 0
113 45 0
-113 -45 0
28 140 0
-28 -140 0
127 15 0
-127 -15 0
1 7 0
-1 -7 0
37 61 0
-37 -61 0
13 35 0
-13 -35 0
39 77 0
-39 -77 0
110 67 0
-110 -67 0
47 82 0
-47 -82 0
79 56 0
-79 -56 0
33 105 0
-33 -105 0
4 46 0
-4 -46 0
25 31 0
-25 -31 0
97 60 0
-97 -60 0
